c turning on binary mode checking
c parsing input formula with 231 variables and 2204 clauses
c WARNING: backward mode ignores deletion of (pseudo) unit clause [0] -3 0
c finished parsing, read 119204678 bytes from proof file
c detected empty clause; start verification via backward checking
c 1773 of 2204 clauses in core                            
c 1457406 of 2021700 lemmas in core using 36158882 resolution steps
c 0 RAT lemmas in core; 528601 redundant literals in core lemmas
s VERIFIED
c verification time: 165.620 seconds
